17	4	3
16	27	28	16	26	52	48	
0	0	0	0	0	6	2	8	10	3	9	3	2	3	4
2	0	3	0	0	5	10	5	2	9	3	2	9	17
10	0	8	10	3	5	4	4	5	5	3	3	6	15	17
7	3	4	10	8	2	7	8	1	4	3	3	5	7	8
9	6	4	10	0	2	1	8	4	7	1	2	16	17
175	0	8	1	0	1	2	3	9	2	5	2	13	17
50	0	5	10	3	7	6	5	2	8	3	2	13	17
100	1	4	0	0	4	2	7	8	7	2	2	10	17
50	1	2	0	0	10	8	8	8	9	2	3	11	12	14
50	0	0	2	10	10	1	2	8	4	9	1	16
250	0	6	1	1	9	5	1	1	3	2	1	17
200	10	8	4	0	6	10	8	10	1	5	1	17
8	0	0	7	1	3	4	7	10	1	3	2	16	17
2	0	0	0	7	1	1	10	9	8	9	2	17	17
6	0	0	0	3	10	8	9	2	6	3	1	17
3	3	1	0	9	10	4	8	10	4	10	1	17
0	0	0	0	0	2	10	10	9	10	10	0
